\ENCODING=ISO-8859-1
\Problem name: ilog.cplex

Minimize
 obj: 42 x1 + 83.4 x2 + 51 x3 + 54 x4
Subject To
 c1:  x4 >= 1
 c2:  x4 >= 1
 c3:  x1 >= 1
 c4:  x3 >= 1
 c5:  x2 >= 1
 c6:  x4 >= 1
 c7:  x2 >= 1
 c8:  x3 >= 1
 c9:  x2 >= 1
 c10: x4 >= 1
 c11: x2 >= 1
 c12: x3 >= 1
 c13: x1 >= 0
 c14: x2 >= 0
 c15: x3 >= 0
 c16: x4 >= 0
End
